NAME : rnd40_20.tsp
TYPE : TSP
DIMENSION : 20
EDGE_WEIGHT_TYPE : EUC_2D
NODE_COORD_SECTION
0 693 618
1 380 806
2 928 786
3 369 642
4 641 348
5 116 762
6 17 888
7 15 485
8 56 957
9 6 128
10 740 379
11 22 168
12 218 334
13 804 241
14 819 184
15 258 615
16 518 514
17 569 94
18 686 306
19 495 351
